
   7    4
  10   10   10   10

   0   0   0   0   0   1 2 
   9  10  10  10  10   1 3 
  10  10  10  10  10   3 6 5 4 
  10  10  10  10  10   1 7
   4  10  10  10  10   1 7
  10  10  10  10  10   1 7
   0   0   0   0   0   0 
